!File created by the GAMESS Input Deck Generator Plugin for Avogadro
 $BASIS GBASIS=STO NGAUSS=3 $END
 $CONTRL SCFTYP=RHF RUNTYP=IRC NZVAR=1 mult=1  ICHARG=0 $END
 $STATPT hssend=.t. OPTTOL=0.0005 NSTEP=50 $END
 $STATPT HESS=calc ihrep=5 $END
 $FORCE nvib=2 $END
 $ZMAT DLC=.t. auto=.t. nonvdw(1)=3,10,8,11,3,2,2,11,8,9,9,10 $END
!$ZMAT IFZMAT(1)=1,3,10,1,8,11 fvalue(1)=2.00,2.00 $END
 $irc npoint=50 saddle=.t. tsengy=.t. forwrd=.t. opttol=0.0005 stride=0.2 $end

 $DATA 
Title
C1
C     6.0     0.92516243     0.74934387    -0.66354531
C     6.0    -1.44769776     0.34084031    -0.12060916
C     6.0    -0.53512591     1.02328682    -0.95747197
C     6.0     0.30392331    -1.36506653     0.44332066
O     8.0     0.62328893    -2.39187121     1.02551591
C     6.0     1.30794692    -0.33540213    -0.02407508
H     1.0     2.34644890    -0.53200001     0.20833412
C     6.0    -1.42629027    -1.81894600    -1.51508868
C     6.0    -0.59531027    -1.12490213    -2.42251801
C     6.0    -0.81698650     0.25581667    -2.61348557
C     6.0    -1.16530097    -1.01980543     0.12287255
H     1.0    -1.86051452    -1.56244230     0.75873417
H     1.0     1.64386702     1.48641622    -1.00452352
H     1.0    -2.46190333     0.70390517    -0.02296428
H     1.0    -0.74381995     2.07174563    -1.15373063
H     1.0    -2.49651241    -1.66102529    -1.60598624
H     1.0    -1.19382763    -2.86525416    -1.33886337
H     1.0     0.39605027    -1.51483440    -2.60819983
H     1.0    -1.84079278     0.57641411    -2.77786469
H     1.0    -0.12805474     0.77586919    -3.27243614
 $END

 $HESS
ENERGY IS     -416.1191946443 E(NUC) IS      517.4269081560
 1  1 7.96965288E-01 2.76976357E-03 5.96164411E-02-3.88657752E-02-7.63946799E-03
 1  2-2.87807438E-03-2.99660258E-01 4.49766829E-02-2.10585130E-02 3.68001539E-02
 1  3-1.11806850E-02 7.94233308E-03-8.88302728E-03-1.15615474E-02 4.64392523E-03
 1  4-2.19055903E-01 1.25759918E-01-8.90201892E-02-1.39425055E-03 3.64762266E-02
 1  5-1.95455811E-02-1.73614377E-03 2.63267917E-03 9.92537183E-04 1.26749010E-03
 1  6 5.49868899E-03-3.63248328E-03-8.18899447E-03-1.30347422E-02-2.12049618E-02
 1  7 4.79825532E-04 5.24081419E-03 5.25542176E-03-8.79581059E-04 9.74120789E-04
 1  8-6.31412385E-04-2.51641138E-01-1.76149302E-01 7.79309344E-02-1.44198922E-03
 1  9-8.63090532E-04 2.16228744E-04-4.09299978E-03-5.52943736E-03-3.16413409E-03
 1 10-4.89614923E-04-4.68619681E-05-1.52073565E-04 5.71107353E-04 6.77323257E-05
 1 11 1.27727618E-03-3.40848558E-04 1.11145759E-04 3.01425348E-04-5.07846659E-05
 1 12 9.36411383E-04 1.98867734E-03 6.37442900E-04 5.60950783E-04 1.12222244E-03
 2  1 2.76976357E-03 9.64278001E-01-4.25587986E-01-1.03592179E-02 1.95112716E-02
 2  2-8.98881901E-03 1.29437321E-02-1.36552255E-01 2.67355009E-02-1.49900741E-03
 2  3-3.86069055E-02 2.61349028E-02-5.16236358E-03 6.05729669E-03-3.18268072E-03
 2  4 1.55037921E-01-5.56615466E-01 2.88818832E-01-6.26114795E-03-1.23318210E-04
 2  5 1.68680676E-03-7.98341160E-05 1.77131788E-04 2.45470047E-03-3.49910868E-03
 2  6-4.88298168E-04-3.55219489E-03-7.14639569E-03 6.27632589E-04-1.60408691E-03
 2  7 3.97754013E-03-5.24943692E-03-7.65315280E-03 1.15859870E-03 5.10897457E-04
 2  8 7.74708160E-04-1.81669768E-01-2.54149269E-01 9.34953265E-02-9.01782084E-04
 2  9-4.56252831E-04 5.24990553E-03 4.07773298E-02 1.41286311E-03 7.13498175E-03
 2 10 1.79801031E-04-1.20810226E-04-1.96239130E-04-2.79328704E-04 2.02510500E-05
 2 11-5.71893034E-04-4.11818545E-04 1.48985398E-04-1.15458005E-04-6.68554308E-05
 2 12-6.69952098E-04-1.80948773E-03 4.91941529E-04 2.87633179E-04 7.76333410E-04
 3  1 5.96164411E-02-4.25587986E-01 4.47459588E-01 3.10458975E-02 7.41869241E-04
 3  2-1.75440038E-03-4.14899208E-02 2.76049532E-02-7.06320827E-02 4.62966332E-03
 3  3 2.80258792E-02-6.97613208E-03 1.86112864E-03-5.58510667E-03 3.62174889E-03
 3  4-1.02104774E-01 2.82523062E-01-2.41780615E-01 1.92557072E-03 9.05618055E-03
 3  5 4.25233353E-03-1.88714124E-03-8.78022371E-04 7.90762483E-03-2.70957317E-03
 3  6 1.07780670E-02-4.83848428E-03-2.55054068E-02-1.46473896E-02-2.51886877E-02
 3  7-1.89124454E-03-8.34317495E-03-6.57215928E-03-6.60495996E-04-1.30841556E-04
 3  8-5.47675244E-04 8.07029745E-02 9.36465354E-02-1.01403688E-01 4.47705802E-03
 3  9 5.73778843E-03 1.00523206E-03-7.06413963E-03-1.23891685E-03-2.55423511E-03
 3 10 3.90264390E-05-1.11510646E-04-5.09443013E-04-1.13443170E-04-1.13594716E-04
 3 11-5.75525600E-04-3.07183627E-04-2.81672893E-04-7.10471829E-05-2.39084083E-04
 3 12-1.62661333E-03-2.55327554E-03-3.25352742E-04 4.30494771E-04 1.71092322E-03
 4  1-3.88657752E-02-1.03592179E-02 3.10458975E-02 8.89722562E-01-1.29660045E-01
 4  2-1.83709634E-01-2.80985753E-01-1.13487820E-01 9.97784902E-02 7.86799179E-04
 4  3 4.18664826E-02-4.33933951E-03-9.05148562E-03 6.74024491E-04-2.98649130E-03
 4  4 3.14785437E-03-4.66885846E-03 2.17203125E-03 8.75847817E-04-6.47240738E-04
 4  5-7.27795646E-05 5.70373581E-03-8.74822056E-03-2.17671777E-02-2.37706003E-03
 4  6-3.11733230E-02 1.63010744E-02 1.88587062E-03 4.95945477E-02 3.88636835E-02
 4  7-1.66758077E-01 1.10576508E-01 9.80889033E-03 1.03701371E-02-3.04173012E-02
 4  8-3.06942994E-04-4.16096395E-03 1.74811893E-03-1.33495072E-03-4.23439332E-01
 4  9 1.22902809E-01 3.26825570E-02 1.13257312E-02 8.88345612E-03-4.45340693E-03
 4 10 1.46169866E-03-2.56636220E-03 2.38128175E-04 7.91974548E-05-4.10417879E-04
 4 11-8.11937233E-04 4.55678955E-04 1.54045913E-04 5.56227798E-04 1.21625742E-03
 4 12-2.31488656E-03-8.39519447E-03-1.39292369E-03-1.94629856E-03-3.26912540E-03
 5  1-7.63946799E-03 1.95112716E-02 7.41869241E-04-1.29660045E-01 7.36882141E-01
 5  2-1.63049059E-01-6.17533338E-02-2.21702066E-01 7.70932180E-03 2.13106836E-02
 5  3-1.78393674E-02-1.27516105E-02-5.63263153E-03 5.08294706E-03-7.65339281E-04
 5  4-2.43755094E-03-3.60439696E-03 2.06493107E-03-1.20301457E-03-1.09174488E-03
 5  5 1.59848175E-04 3.72441528E-02-3.69034162E-02-1.67040002E-01-2.90846379E-02
 5  6-1.05423932E-01 4.77131106E-02 3.31306209E-03 9.78270400E-02 7.99969157E-02
 5  7 6.61428222E-02-3.36531612E-01 1.69711362E-01 5.16975508E-03-1.54531270E-02
 5  8-1.34694530E-02 3.34844976E-03-7.89971534E-04 1.18504868E-03 1.31123770E-01
 5  9-1.16248356E-01 6.79765061E-03-2.73174189E-02-5.87127335E-03 3.65035999E-02
 5 10 1.97425576E-03 6.09761164E-03 1.43300276E-02 1.54381444E-03 5.21411032E-04
 5 11 5.02802060E-03-2.28471508E-03 8.33517557E-04 4.00443176E-04-1.63915771E-03
 5 12-3.13884153E-03-1.04423048E-02-2.51879181E-03-2.15783386E-03-4.82438020E-03
 6  1-2.87807438E-03-8.98881901E-03-1.75440038E-03-1.83709634E-01-1.63049059E-01
 6  2 3.66234104E-01 1.25157146E-01 1.28349268E-01-1.16367379E-01-1.11159494E-02
 6  3 1.01987951E-02 3.37662284E-03 7.80063364E-04-1.68823389E-03 7.89017480E-04
 6  4-1.91153862E-03 6.83849563E-04 5.73736638E-04 4.22427839E-04 6.38770971E-04
 6  5 1.08709767E-04-5.49885732E-03-7.51023306E-03 5.05675467E-02 2.06211492E-02
 6  6 4.89832576E-02-3.93885279E-02 1.34107957E-02-7.80370224E-02-8.37495539E-02
 6  7 9.25739986E-03 4.49907392E-02-1.27090451E-01-7.26628690E-03 2.81501883E-02
 6  8 4.95386362E-03-3.22401071E-03 1.56122582E-03-1.23806976E-04 4.84532204E-02
 6  9 1.23834013E-03-5.03121154E-02 5.82455722E-04-6.09740892E-03-6.36432779E-03
 6 10-9.56025590E-04-6.06223422E-03-3.96946566E-03-1.95413600E-03-2.01141112E-03
 6 11-4.03854109E-03-3.90549989E-03 1.34928201E-03 5.26328594E-04 3.00575833E-03
 6 12 5.88855374E-03 5.79231555E-03 7.29596483E-04 1.41215105E-03 2.36323998E-04
 7  1-2.99660258E-01 1.29437321E-02-4.14899208E-02-2.80985753E-01-6.17533338E-02
 7  2 1.25157146E-01 7.48429402E-01 1.11963671E-03-5.48871821E-02 1.14135868E-03
 7  3-1.53192670E-03 4.01537816E-03-1.40840183E-03 4.27300754E-04-1.91522434E-04
 7  4-1.38066377E-02 2.35226839E-02-8.44310672E-03 1.67576297E-04-2.08920064E-03
 7  5-8.34313501E-04-1.10768762E-02 9.95328062E-04 3.84102291E-02 5.14574868E-03
 7  6 3.34961229E-02-1.47139539E-03-5.45252115E-02-2.41474962E-02-2.66252892E-02
 7  7 2.03363020E-02-4.28106504E-02-2.86051762E-02 3.58090320E-04 5.28167067E-03
 7  8 4.19034404E-03-1.44329727E-02 1.22706763E-02-8.03556014E-03-1.14798467E-02
 7  9-2.35929076E-02 2.47829426E-02-9.31752671E-02 7.16731117E-02-1.21822820E-02
 7 10 4.83065266E-04-1.02172236E-03-3.18111302E-03-5.17626725E-04 3.37313821E-06
 7 11-2.36125638E-03 1.59959608E-03-8.16007912E-04-8.69159736E-04-1.13811300E-03
 7 12-9.93589441E-03-1.98263649E-02 4.54582595E-03 5.96550377E-03 1.24476025E-02
 8  1 4.49766829E-02-1.36552255E-01 2.76049532E-02-1.13487820E-01-2.21702066E-01
 8  2 1.28349268E-01 1.11963671E-03 8.71644087E-01-2.48349403E-01-1.72834057E-03
 8  3-3.21312730E-03-5.98584887E-03 6.67853468E-04 1.58911952E-03 6.07170326E-05
 8  4 3.96028144E-02 4.48022134E-03 7.17755097E-03-3.46563787E-04-7.01795634E-04
 8  5 9.89331590E-03 1.38634799E-03-4.87349563E-03-2.52944654E-03-1.02635181E-02
 8  6-3.47215930E-02-7.10791909E-03-2.21905213E-03-2.99835672E-02 4.30167747E-03
 8  7-3.26444575E-02-2.41308781E-02 2.71732329E-02 4.04169104E-03-7.09354861E-03
 8  8 2.43174698E-03-2.43190904E-02 9.19910981E-03-5.98305972E-03 1.38331566E-02
 8  9 9.94405151E-03-8.19105527E-03 7.29538617E-02-4.37191399E-01 6.72136255E-02
 8 10 1.47393550E-03 2.21814842E-04-8.30123640E-04 4.02449664E-04 1.19323105E-03
 8 11-1.70279300E-03 1.79263387E-03-4.90887479E-04-8.95958857E-04 5.05729298E-04
 8 12-3.00126688E-04 1.08336226E-03 2.25204933E-03 2.68310466E-03 6.28615805E-03
 9  1-2.10585130E-02 2.67355009E-02-7.06320827E-02 9.97784902E-02 7.70932180E-03
 9  2-1.16367379E-01-5.48871821E-02-2.48349403E-01 2.14128269E-01 6.62140054E-03
 9  3-1.61612636E-02-1.62063966E-02-2.90494728E-03 4.18768631E-03 1.73186375E-03
 9  4-2.27516975E-02 1.42007149E-02-3.00095286E-03-1.28378655E-03 5.91587599E-03
 9  5 7.32366120E-03 3.66585361E-02-3.74335432E-03-1.36596414E-01-2.36188461E-02
 9  6-1.71140285E-01 5.29003959E-02 2.50157007E-04 1.91627318E-01 8.96957902E-02
 9  7-5.54064799E-03 1.25375447E-01 6.02929432E-02-1.36735861E-03-1.14551132E-03
 9  8-3.62630593E-05 1.35645542E-02-2.29480169E-03 7.80346745E-03-3.89821905E-03
 9  9 2.42257058E-03 4.88018552E-03-7.84782156E-03 8.40924921E-02-5.56218165E-02
 9 10 6.55507433E-04 5.31868972E-03 1.11173881E-02 2.02127118E-03 1.23921814E-03
 9 11 5.23310668E-03-1.90618963E-03 8.17194615E-04-1.57052082E-03-2.97166119E-03
 9 12-1.40516268E-02-3.37041440E-02-9.51304604E-03-1.27557843E-02-2.13711012E-02
10  1 3.68001539E-02-1.49900741E-03 4.62966332E-03 7.86799179E-04 2.13106836E-02
10  2-1.11159494E-02 1.14135868E-03-1.72834057E-03 6.62140054E-03 6.74731197E-01
10  3-1.27598865E-01 1.08242129E-01-1.68689349E-01 1.93118087E-01-1.11320248E-01
10  4-2.33850908E-01-6.86642718E-02 2.66421828E-02-1.27344700E-02-2.81315668E-02
10  5 1.17982288E-02-5.55750194E-03-8.68299493E-03-1.80888349E-02 5.98949508E-04
10  6-4.24235768E-04 4.02249016E-03-6.07979317E-03 9.86672922E-04 1.27051253E-03
10  7-2.61827099E-01 1.72045415E-02-1.01603436E-02-1.73471752E-02 7.66831149E-03
10  8-1.02775800E-02-5.25096114E-03 1.31002509E-03-4.02867795E-03-5.86832887E-04
10  9-5.17981592E-03-2.14991101E-04-2.63009071E-03-4.76584419E-04-3.28255038E-04
10 10-5.92969994E-06 1.22548985E-03 1.62192665E-03 5.01111877E-05-2.68106824E-06
10 11 1.58452308E-04 1.63801075E-04-2.70252346E-04 9.46441715E-05-4.49165225E-04
10 12-4.79745703E-04-9.34111145E-04 7.36905464E-04 3.14550664E-04 1.36736115E-03
11  1-1.11806850E-02-3.86069055E-02 2.80258792E-02 4.18664826E-02-1.78393674E-02
11  2 1.01987951E-02-1.53192670E-03-3.21312730E-03-1.61612636E-02-1.27598865E-01
11  3 1.01696969E+00-4.32381394E-01 1.88056640E-01-7.11730540E-01 3.63488435E-01
11  4-7.26462722E-02-1.59520995E-01 2.51969090E-02 8.67127474E-03 8.62954845E-03
11  5-1.76959566E-03-3.27357280E-03 2.21034977E-03-3.60368844E-03-1.55011101E-03
11  6-2.42687467E-03 2.85597886E-03-4.08248130E-04 5.05800623E-03 4.80200083E-03
11  7 7.18294503E-04-1.03819797E-01 1.45778658E-02-1.96110764E-02 8.00829675E-03
11  8-5.08091309E-03-1.01151385E-04 2.46346510E-03 8.55086785E-03 6.82055153E-04
11  9-4.26271148E-03 6.31713908E-03-9.39333660E-04 3.75913806E-04-3.95230807E-04
11 10 5.49768306E-04-1.13186257E-03-1.33940802E-03-1.58449210E-03-1.57538698E-04
11 11-1.74066688E-03 1.02827164E-04 4.13596586E-05-3.81558889E-04 8.04378156E-06
11 12-6.21841640E-04-9.20186246E-04-2.29652035E-04-4.25069997E-04-2.39965316E-04
12  1 7.94233308E-03 2.61349028E-02-6.97613208E-03-4.33933951E-03-1.27516105E-02
12  2 3.37662284E-03 4.01537816E-03-5.98584887E-03-1.62063966E-02 1.08242129E-01
12  3-4.32381394E-01 4.81951019E-01-1.10901382E-01 3.65028819E-01-2.75034881E-01
12  4 2.51270010E-02 3.03139926E-02-1.04778088E-01-7.19727889E-03-6.93846306E-03
12  5 6.13302214E-03-2.25099355E-02-1.41155413E-03-3.22555951E-02-7.16097396E-03
12  6-7.84081959E-03 4.82109990E-03-2.74582994E-06 6.88198848E-03 2.73549471E-03
12  7-1.65428887E-02 3.92303633E-02-8.66353146E-02 2.28982018E-02-9.16452441E-03
12  8 6.95581573E-03-2.05299036E-03 8.33199708E-03 1.23458107E-02 1.68444504E-03
12  9 1.04482722E-03 4.91862555E-03 9.61291673E-04-3.18569857E-04 6.40012149E-04
12 10-2.31990960E-04-1.15648398E-03-2.71400135E-03 2.69935367E-04 1.35292608E-03
12 11 1.79401331E-03 4.94113846E-05 1.83500800E-04-1.02177165E-04-1.26253237E-05
12 12-3.27134382E-04-5.25821696E-04-2.37975711E-04-2.26914107E-04-4.43129011E-04
13  1-8.88302728E-03-5.16236358E-03 1.86112864E-03-9.05148562E-03-5.63263153E-03
13  2 7.80063364E-04-1.40840183E-03 6.67853468E-04-2.90494728E-03-1.68689349E-01
13  3 1.88056640E-01-1.10901382E-01 1.62113495E-01-2.10987305E-01 1.26631576E-01
13  4 2.70459999E-02-2.66410949E-02 1.31498086E-02 2.14637517E-03 3.42808903E-03
13  5-9.93842426E-04-8.48948650E-05 3.42169667E-03-2.69684675E-05-8.80402981E-04
13  6-1.82427348E-03-9.58455396E-04 1.72502406E-03 5.34008405E-04 1.05759382E-03
13  7-1.21224086E-02 5.29267286E-02-2.98258386E-02 5.30095493E-03-1.63836496E-03
13  8 7.37637116E-04 1.74965742E-03-4.97892571E-04 1.05609836E-03 1.98683354E-04
13  9 2.95105222E-03-3.53283942E-04 9.61178667E-04 1.74416688E-04 5.49660760E-04
13 10 3.03567103E-06-3.27461663E-04-4.27917123E-04 1.53834220E-04 2.07964493E-04
13 11 7.77775094E-04-1.77005756E-04 2.31948978E-04 1.07171941E-04 1.23439155E-04
13 12 1.19725603E-04 7.61514043E-05-2.24701522E-04-8.73687554E-06-3.92029626E-04
14  1-1.15615474E-02 6.05729669E-03-5.58510667E-03 6.74024491E-04 5.08294706E-03
14  2-1.68823389E-03 4.27300754E-04 1.58911952E-03 4.18768631E-03 1.93118087E-01
14  3-7.11730540E-01 3.65028819E-01-2.10987305E-01 7.72859340E-01-4.22268994E-01
14  4 6.28769323E-05-5.69553879E-02 4.54377084E-02 2.34177075E-03 2.42840382E-03
14  5-1.87368670E-03-1.99746766E-03-2.56047725E-03-3.12184636E-03 4.33014250E-04
14  6 1.41197120E-03 3.74302313E-04-7.80800299E-06-1.51138762E-03-2.62959354E-03
14  7 2.72841332E-02-1.43488427E-02 2.38942339E-02-1.66617456E-03-2.48774194E-04
14  8-1.39503391E-03 1.36058500E-03-2.13688562E-03-3.69952382E-04 5.88091746E-05
14  9-8.67491060E-04-9.81351645E-04 2.25882742E-04-6.35116515E-05-3.10144530E-04
14 10-2.93243811E-04 6.37326151E-04 2.24041202E-04 3.71753319E-04 2.39878298E-04
14 11 6.12973237E-04 8.88253078E-05-1.72212643E-04-2.96277852E-05-2.35018750E-05
14 12 2.03552395E-04 4.30448447E-04 8.99854386E-05 8.56752970E-05 6.33590817E-05
15  1 4.64392523E-03-3.18268072E-03 3.62174889E-03-2.98649130E-03-7.65339281E-04
15  2 7.89017480E-04-1.91522434E-04 6.07170326E-05 1.73186375E-03-1.11320248E-01
15  3 3.63488435E-01-2.75034881E-01 1.26631576E-01-4.22268994E-01 2.65879478E-01
15  4 5.35811809E-05 4.07756780E-02 3.20944844E-05-8.48495857E-04-1.63242441E-03
15  5-4.39375425E-04 1.88050132E-03 1.52944962E-03 5.01329489E-03 8.40213383E-04
15  6 1.18370642E-03-1.79730141E-03 1.56383122E-04-1.50978588E-03-7.28451538E-06
15  7-1.78482125E-02 2.10376709E-02 2.67042179E-03-4.02735474E-04 4.10048026E-04
15  8-1.87195759E-04-4.31737296E-04-2.44140920E-04-2.23609247E-03-1.34216625E-04
15  9 1.01548557E-03-4.71061499E-04-1.28190563E-04 2.33476241E-05-4.65838470E-05
15 10 1.09298961E-06 6.23781126E-05 6.62033435E-05 1.90831950E-04-1.12425127E-04
15 11 2.23037906E-04-1.29878528E-04 1.85681537E-05 5.96993206E-05 9.57295841E-06
15 12 5.35226394E-05 4.70241067E-05 1.40512537E-05 5.67831019E-05 8.58915260E-05
16  1-2.19055903E-01 1.55037921E-01-1.02104774E-01 3.14785437E-03-2.43755094E-03
16  2-1.91153862E-03-1.38066377E-02 3.96028144E-02-2.27516975E-02-2.33850908E-01
16  3-7.26462722E-02 2.51270010E-02 2.70459999E-02 6.28769323E-05 5.35811809E-05
16  4 8.99572721E-01-1.36822316E-01 1.57501682E-01-4.44058931E-01 6.27913102E-02
16  5-8.24817203E-02 1.12558030E-03 5.65057040E-04-3.14992070E-04 7.46266485E-04
16  6-6.05802426E-04 6.37601228E-05-3.40648779E-04 1.99841522E-03 2.43680167E-03
16  7-2.51353346E-02-2.26078247E-02 1.52888427E-02-4.62530954E-03 1.99944168E-03
16  8-2.83697198E-03 1.56439851E-02-2.56488284E-02 1.41314865E-02 6.97559658E-04
16  9-3.70065839E-04-5.02085578E-04-6.78061540E-03-2.18452226E-04-4.99922824E-04
16 10 1.38160329E-04 4.66344247E-05 6.61599799E-05-5.14172462E-05-2.28949476E-06
16 11 5.88075929E-05-4.02546861E-04-3.01618226E-04-5.80022791E-04 1.63313890E-04
16 12-3.07031233E-04-5.86984943E-04-1.73188642E-04-1.36419579E-04-1.57411559E-04
17  1 1.25759918E-01-5.56615466E-01 2.82523062E-01-4.66885846E-03-3.60439696E-03
17  2 6.83849563E-04 2.35226839E-02 4.48022134E-03 1.42007149E-02-6.86642718E-02
17  3-1.59520995E-01 3.03139926E-02-2.66410949E-02-5.69553879E-02 4.07756780E-02
17  4-1.36822316E-01 8.55864333E-01-4.05635654E-01 6.76823291E-02-8.23296167E-02
17  5 2.74995939E-02-5.34224673E-04 6.54317601E-04 3.67655176E-03 4.67535239E-04
17  6 3.43473568E-03-3.32508701E-03-9.55329695E-04-7.58985207E-03-8.32362267E-03
17  7 3.23151688E-03 1.16795091E-02 3.30024900E-03 2.19171140E-03-3.32466041E-04
17  8 5.70409972E-04 1.75600091E-02-1.01891866E-02 1.46336170E-02-3.15490165E-04
17  9 3.55004712E-04-5.74436476E-04-1.21292841E-03 1.15737251E-04-1.30228466E-03
17 10-2.01459619E-04 3.06226232E-05-9.07331850E-05 2.53149623E-04 2.38258658E-06
17 11 2.57799519E-04-6.17998731E-04-1.18221418E-04-3.35227494E-04 7.79585079E-05
17 12 6.02132690E-04 1.24041848E-03-1.12839688E-04 3.65921134E-05-8.88910078E-05
18  1-8.90201892E-02 2.88818832E-01-2.41780615E-01 2.17203125E-03 2.06493107E-03
18  2 5.73736638E-04-8.44310672E-03 7.17755097E-03-3.00095286E-03 2.66421828E-02
18  3 2.51969090E-02-1.04778088E-01 1.31498086E-02 4.54377084E-02 3.20944844E-05
18  4 1.57501682E-01-4.05635654E-01 3.97424883E-01-8.38219174E-02 2.55754745E-02
18  5-7.53604906E-02 3.10832065E-03-1.76818326E-04 3.07430581E-03 9.19064789E-04
18  6 1.34733224E-03-2.00694826E-03-6.44509014E-04-1.14592564E-05 1.97837023E-03
18  7-8.35742450E-03-1.90786713E-03 1.45177087E-02-2.22759886E-03 1.90000457E-03
18  8 4.39677529E-04-9.52063646E-03 1.11367617E-02 7.66384447E-03-7.75319283E-05
18  9 2.04836218E-04 2.33057745E-04-2.38335484E-04-4.05517190E-04 1.53404565E-03
18 10-1.79664566E-05 2.00221505E-04 6.41931888E-04-2.68706103E-04-2.29578678E-04
18 11-4.48020514E-04-9.66095498E-04-3.42876952E-04-7.68107018E-04 1.03008876E-04
18 12-2.15521597E-04-1.10594011E-04 7.91881429E-06-1.35268905E-04 1.40159744E-04
19  1-1.39425055E-03-6.26114795E-03 1.92557072E-03 8.75847817E-04-1.20301457E-03
19  2 4.22427839E-04 1.67576297E-04-3.46563787E-04-1.28378655E-03-1.27344700E-02
19  3 8.67127474E-03-7.19727889E-03 2.14637517E-03 2.34177075E-03-8.48495857E-04
19  4-4.44058931E-01 6.76823291E-02-8.38219174E-02 4.53378000E-01-7.04928055E-02
19  5 8.84865822E-02-1.74521126E-05 4.34441954E-04 4.57360920E-05 2.57056916E-05
19  6-1.61069918E-04 2.74512635E-05 7.65625399E-04-2.85485962E-04-3.21015421E-04
19  7-7.49475468E-04-2.48185211E-03 1.60782329E-03-8.45391605E-04 4.55426042E-04
19  8-3.53925704E-04 1.95620525E-03 1.06229575E-03 1.09869904E-03 9.62911981E-05
19  9 4.68504713E-04 1.11486718E-04 4.13067353E-04-5.55811399E-05 7.11450968E-05
19 10-2.84468256E-05-1.51893668E-05-4.66646501E-05 4.02179829E-05 3.92289445E-05
19 11 6.87929451E-05-2.83641046E-05 1.74294274E-05-1.90826520E-05 4.22873097E-05
19 12 1.31380343E-04 2.00942865E-04-5.04178438E-05-1.37141903E-06-1.74490936E-04
20  1 3.64762266E-02-1.23318210E-04 9.05618055E-03-6.47240738E-04-1.09174488E-03
20  2 6.38770971E-04-2.08920064E-03-7.01795634E-04 5.91587599E-03-2.81315668E-02
20  3 8.62954845E-03-6.93846306E-03 3.42808903E-03 2.42840382E-03-1.63242441E-03
20  4 6.27913102E-02-8.23296167E-02 2.55754745E-02-7.04928055E-02 7.64516967E-02
20  5-3.16813656E-02 3.49817069E-05 4.70707927E-04-7.92577636E-04 7.05479527E-05
20  6-1.14752922E-03 5.86369206E-04 1.06474253E-03 1.35805790E-03 1.02939762E-03
20  7-1.97814154E-03-3.96113158E-03 4.41542874E-03-1.48402712E-03 5.86612877E-04
20  8-6.17124108E-04 2.58912043E-04-9.31981172E-04-5.57230562E-03-9.45106498E-05
20  9 1.05131089E-04-3.21195938E-04 8.24935607E-04 1.74613606E-04 3.75314732E-04
20 10 6.19680701E-06-1.42041810E-05-3.03912066E-05 3.63830282E-05 5.95854190E-05
20 11 1.38351297E-04-3.77618356E-05 1.29828969E-05-7.86499252E-05-2.45333735E-06
20 12 7.71951966E-05 9.41535741E-05-3.46173025E-05-5.32142179E-05-1.60819667E-04
21  1-1.95455811E-02 1.68680676E-03 4.25233353E-03-7.27795646E-05 1.59848175E-04
21  2 1.08709767E-04-8.34313501E-04 9.89331590E-03 7.32366120E-03 1.17982288E-02
21  3-1.76959566E-03 6.13302214E-03-9.93842426E-04-1.87368670E-03-4.39375425E-04
21  4-8.24817203E-02 2.74995939E-02-7.53604906E-02 8.84865822E-02-3.16813656E-02
21  5 6.29280848E-02-4.02104894E-05 4.02082357E-05-1.18024743E-03 3.28588241E-04
21  6-1.35096031E-03 7.34394546E-04 1.52338070E-03 1.78053044E-03 2.05704391E-03
21  7 2.47641282E-03 1.89105471E-03 1.34313483E-03 5.50807036E-04-3.43449438E-04
21  8 1.39340526E-04 1.22118088E-03-5.50138984E-03-7.83551534E-03-4.10937614E-04
21  9-4.70544391E-04-2.99786718E-04-1.96016882E-03 1.37367236E-05 8.02414994E-05
21 10 4.06791687E-06 1.65584195E-05 4.45969863E-05 2.08449930E-05 1.40387055E-05
21 11 1.02265281E-04-6.07760998E-05-4.95127494E-05-8.33563708E-05 8.56358370E-06
21 12 1.06528804E-04 1.15317711E-04-1.83273245E-05-6.17161194E-05-1.63374856E-04
22  1-1.73614377E-03-7.98341160E-05-1.88714124E-03 5.70373581E-03 3.72441528E-02
22  2-5.49885732E-03-1.10768762E-02 1.38634799E-03 3.66585361E-02-5.55750194E-03
22  3-3.27357280E-03-2.25099355E-02-8.48948650E-05-1.99746766E-03 1.88050132E-03
22  4 1.12558030E-03-5.34224673E-04 3.10832065E-03-1.74521126E-05 3.49817069E-05
22  5-4.02104894E-05 8.85855967E-01-2.00043393E-02-6.57280608E-02-2.70517002E-01
22  6-5.96188745E-02 1.28760859E-01 1.54789032E-02-3.73604156E-02-2.51823981E-02
22  7-5.58195445E-02-4.05438472E-02-3.98472367E-02 3.42611781E-03 6.57905843E-03
22  8 1.32553044E-02 4.09352998E-04-7.55092651E-05 9.02613695E-05 1.04454341E-03
22  9-6.50677094E-04-2.01367562E-04-1.56940683E-04-6.47740727E-04-2.01538766E-03
22 10-4.54251289E-01 5.74400150E-02-4.05963902E-02-1.03866677E-01 8.32262785E-02
22 11-1.31398341E-02-1.28965563E-02-2.56333158E-02 2.66786233E-02 1.48544795E-03
22 12 3.08052550E-04 1.89227200E-03 1.45122920E-03 4.20093170E-03 4.32214216E-03
23  1 2.63267917E-03 1.77131788E-04-8.78022371E-04-8.74822056E-03-3.69034162E-02
23  2-7.51023306E-03 9.95328062E-04-4.87349563E-03-3.74335432E-03-8.68299493E-03
23  3 2.21034977E-03-1.41155413E-03 3.42169667E-03-2.56047725E-03 1.52944962E-03
23  4 5.65057040E-04 6.54317601E-04-1.76818326E-04 4.34441954E-04 4.70707927E-04
23  5 4.02082357E-05-2.00043393E-02 8.40315310E-01-2.33694546E-01-1.09704206E-01
23  6-2.27327755E-01 1.39294337E-01-2.92052080E-02-2.06812255E-02 3.25457965E-02
23  7 4.30945655E-04-2.87869830E-02 4.55693989E-03 1.58760598E-03 2.70797633E-03
23  8 5.99268139E-03 9.81499011E-05-4.72999552E-05 1.07601566E-04 1.83244815E-03
23  9-4.22033953E-04-8.78302211E-04 7.30246006E-04 1.31959428E-03-9.93157214E-04
23 10 6.45376688E-02-8.92807929E-02 1.42591937E-02 8.40754393E-02-4.38659792E-01
23 11 6.06448430E-02 1.25650767E-02 9.57490103E-03-9.15391818E-03-2.22278181E-05
23 12 2.42848862E-04-1.44261213E-03 2.46041359E-03-8.12986602E-03 9.11466752E-04
24  1 9.92537183E-04 2.45470047E-03 7.90762483E-03-2.17671777E-02-1.67040002E-01
24  2 5.05675467E-02 3.84102291E-02-2.52944654E-03-1.36596414E-01-1.80888349E-02
24  3-3.60368844E-03-3.22555951E-02-2.69684675E-05-3.12184636E-03 5.01329489E-03
24  4-3.14992070E-04 3.67655176E-03 3.07430581E-03 4.57360920E-05-7.92577636E-04
24  5-1.18024743E-03-6.57280608E-02-2.33694546E-01 2.08336126E-01 1.01797975E-01
24  6 4.44141837E-03-1.35351419E-01 2.33595429E-03 1.33606299E-01 7.61371775E-02
24  7 7.07234071E-03 1.83997401E-01 8.10167976E-02-8.07840349E-03-1.57523528E-02
24  8-2.47411143E-02 2.81062979E-04-9.03906700E-04-1.36431981E-03-1.88174875E-03
24  9 9.37721007E-04-1.21099421E-03 2.07502044E-03 1.88611207E-03 7.78691299E-03
24 10-2.55982131E-02 2.69650889E-02-3.70882767E-02-7.47150561E-03 7.51003257E-02
24 11-5.74134148E-02-2.53986431E-03 4.61282922E-03 1.71236069E-03-6.30216430E-04
24 12-9.28373915E-03-1.47723180E-02-8.84870543E-04-9.56341548E-04 4.21966421E-04
25  1 1.26749010E-03-3.49910868E-03-2.70957317E-03-2.37706003E-03-2.90846379E-02
25  2 2.06211492E-02 5.14574868E-03-1.02635181E-02-2.36188461E-02 5.98949508E-04
25  3-1.55011101E-03-7.16097396E-03-8.80402981E-04 4.33014250E-04 8.40213383E-04
25  4 7.46266485E-04 4.67535239E-04 9.19064789E-04 2.57056916E-05 7.05479527E-05
25  5 3.28588241E-04-2.70517002E-01-1.09704206E-01 1.01797975E-01 8.18959293E-01
25  6-1.33064786E-01-2.33575199E-01-1.59453622E-01 1.06235925E-01 1.80120458E-02
25  7 1.75885688E-03 5.00542777E-02 3.55631342E-02-9.53804354E-04-2.43859926E-03
25  8-3.59268493E-03-5.54266929E-05-2.93621806E-04-5.20388314E-04 5.28795039E-04
25  9-3.18687685E-04-2.44160825E-04 3.21399401E-04-1.17094787E-04-4.63371341E-04
25 10-1.29447142E-02-1.65279522E-02 4.06994604E-02 1.08176099E-02 8.51489862E-03
25 11-7.02708161E-03-4.05245403E-01 1.29672896E-01 6.37734406E-02 3.67987155E-03
25 12 4.15467545E-02-1.79441689E-03 8.57744831E-03-3.01335252E-02-1.84837560E-03
26  1 5.49868899E-03-4.88298168E-04 1.07780670E-02-3.11733230E-02-1.05423932E-01
26  2 4.89832576E-02 3.34961229E-02-3.47215930E-02-1.71140285E-01-4.24235768E-04
26  3-2.42687467E-03-7.84081959E-03-1.82427348E-03 1.41197120E-03 1.18370642E-03
26  4-6.05802426E-04 3.43473568E-03 1.34733224E-03-1.61069918E-04-1.14752922E-03
26  5-1.35096031E-03-5.96188745E-02-2.27327755E-01 4.44141837E-03-1.33064786E-01
26  6 7.54646948E-01-1.39197722E-01 6.93301886E-02-3.43679115E-01 1.70400971E-01
26  7 1.67770140E-03 1.02187566E-01 7.92866063E-02-2.48547988E-03-3.16629727E-03
26  8-6.11116153E-03 2.36907501E-04-5.62814091E-04-1.09998645E-03-1.74543939E-03
26  9 8.35197038E-04 4.02437245E-04 1.26562008E-03 2.01765339E-03 7.31009812E-03
26 10 6.28207515E-03 1.48258019E-02 5.91993123E-03-2.50940833E-02-6.33753214E-03
26 11 3.61395433E-02 1.38918201E-01-1.24296038E-01-6.46929617E-03-4.85894120E-03
26 12-1.66159504E-02-2.05346822E-02 4.35080298E-03-1.31661438E-02-1.24484553E-02
27  1-3.63248328E-03-3.55219489E-03-4.83848428E-03 1.63010744E-02 4.77131106E-02
27  2-3.93885279E-02-1.47139539E-03-7.10791909E-03 5.29003959E-02 4.02249016E-03
27  3 2.85597886E-03 4.82109990E-03-9.58455396E-04 3.74302313E-04-1.79730141E-03
27  4 6.37601228E-05-3.32508701E-03-2.00694826E-03 2.74512635E-05 5.86369206E-04
27  5 7.34394546E-04 1.28760859E-01 1.39294337E-01-1.35351419E-01-2.33575199E-01
27  6-1.39197722E-01 3.94737729E-01 1.07566956E-02 2.77898399E-02-1.30739159E-01
27  7 1.57558310E-02-7.66067709E-02-7.95264594E-02 2.88111329E-04 1.60268030E-03
27  8 9.24549350E-04-1.02524774E-03 3.95169347E-04-3.33111920E-04-3.56951441E-03
27  9 1.35916753E-03 5.50313757E-04-2.03434746E-03-2.18698084E-03-5.37504356E-03
27 10-4.93390743E-03-8.34202612E-03-7.46981673E-03 3.14025744E-05-5.97502522E-03
27 11-3.07117147E-03 8.13998801E-02-1.17090148E-02-5.78436105E-02-5.68616318E-05
27 12 6.05745618E-03 7.33263212E-03-6.15014330E-03 2.99743297E-02 5.73993829E-03
28  1-8.18899447E-03-7.14639569E-03-2.55054068E-02 1.88587062E-03 3.31306209E-03
28  2 1.34107957E-02-5.45252115E-02-2.21905213E-03 2.50157007E-04-6.07979317E-03
28  3-4.08248130E-04-2.74582994E-06 1.72502406E-03-7.80800299E-06 1.56383122E-04
28  4-3.40648779E-04-9.55329695E-04-6.44509014E-04 7.65625399E-04 1.06474253E-03
28  5 1.52338070E-03 1.54789032E-02-2.92052080E-02 2.33595429E-03-1.59453622E-01
28  6 6.93301886E-02 1.07566956E-02 8.76971744E-01-6.78955418E-02-1.11373159E-01
28  7-3.51815383E-04-4.66527890E-05 2.38740639E-03 7.27557163E-04 5.65364230E-04
28  8-2.31647569E-04-2.25202108E-04 1.76212748E-04 6.97028333E-04-1.42699482E-04
28  9 7.72390342E-05-1.22741782E-04 6.76685615E-04 1.49633327E-03 1.95071461E-03
28 10 1.69378189E-03-5.22032321E-04-1.97691567E-03-2.32777104E-03-4.67228043E-04
28 11 7.12211145E-03 1.82145961E-03 4.02645736E-02-7.98874235E-03-4.28612260E-01
28 12 1.04213972E-01-5.01706576E-02-2.41498635E-01-1.11628192E-01 1.57425898E-01
29  1-1.30347422E-02 6.27632589E-04-1.46473896E-02 4.95945477E-02 9.78270400E-02
29  2-7.80370224E-02-2.41474962E-02-2.99835672E-02 1.91627318E-01 9.86672922E-04
29  3 5.05800623E-03 6.88198848E-03 5.34008405E-04-1.51138762E-03-1.50978588E-03
29  4 1.99841522E-03-7.58985207E-03-1.14592564E-05-2.85485962E-04 1.35805790E-03
29  5 1.78053044E-03-3.73604156E-02-2.06812255E-02 1.33606299E-01 1.06235925E-01
29  6-3.43679115E-01 2.77898399E-02-6.78955418E-02 6.74092094E-01-3.57907290E-01
29  7 4.75237525E-03-1.05129430E-01-5.97770384E-02 2.16500717E-03 4.29134820E-03
29  8 4.65676063E-03-7.31033522E-04 7.65234867E-04 4.55980542E-04-3.44871049E-03
29  9 4.06430036E-04-2.09864078E-04-6.94188850E-03-1.07857101E-02-3.21240965E-02