!File created by the GAMESS Input Deck Generator Plugin for Avogadro
 $BASIS GBASIS=STO NGAUSS=3 $END
 $CONTRL SCFTYP=RHF RUNTYP=SADPOINT NZVAR=1 mult=1  ICHARG=0 $END
 $STATPT hssend=.t. OPTTOL=0.0005 NSTEP=50 $END
 $STATPT HESS=calc ihrep=5 $END
 $FORCE nvib=2 $END
 $ZMAT DLC=.t. auto=.t. nonvdw(1)=3,10,8,11,3,2,2,11,8,9,9,10 $END
!$ZMAT IFZMAT(1)=1,3,10,1,8,11 fvalue(1)=2.00,2.00 $END

 $DATA 
Title
C1
C     6.0     0.92516243     0.74934387    -0.66354531
C     6.0    -1.44769776     0.34084031    -0.12060916
C     6.0    -0.53512591     1.02328682    -0.95747197
C     6.0     0.30392331    -1.36506653     0.44332066
O     8.0     0.62328893    -2.39187121     1.02551591
C     6.0     1.30794692    -0.33540213    -0.02407508
H     1.0     2.34644890    -0.53200001     0.20833412
C     6.0    -1.42629027    -1.81894600    -1.51508868
C     6.0    -0.59531027    -1.12490213    -2.42251801
C     6.0    -0.81698650     0.25581667    -2.61348557
C     6.0    -1.16530097    -1.01980543     0.12287255
H     1.0    -1.86051452    -1.56244230     0.75873417
H     1.0     1.64386702     1.48641622    -1.00452352
H     1.0    -2.46190333     0.70390517    -0.02296428
H     1.0    -0.74381995     2.07174563    -1.15373063
H     1.0    -2.49651241    -1.66102529    -1.60598624
H     1.0    -1.19382763    -2.86525416    -1.33886337
H     1.0     0.39605027    -1.51483440    -2.60819983
H     1.0    -1.84079278     0.57641411    -2.77786469
H     1.0    -0.12805474     0.77586919    -3.27243614
 $END
