!File created by the GAMESS Input Deck Generator Plugin for Avogadro
 $BASIS GBASIS=STO NGAUSS=3 $END
 $CONTRL SCFTYP=RHF RUNTYP=SADPOINT NZVAR=1 mult=1  ICHARG=0 $END
 $STATPT hssend=.t. OPTTOL=0.0005 NSTEP=50 $END
 $STATPT HESS=calc ihrep=5 $END
 $FORCE nvib=2 $END
 $ZMAT DLC=.t. auto=.t. nonvdw(1)=3,10,8,11,3,2,2,11,8,9,9,10 $END
!$ZMAT IFZMAT(1)=1,3,10,1,8,11 fvalue(1)=2.00,2.00 $END

 $DATA 
Title
C1
C     6.0     0.92766368     0.75752068    -0.64627028
C     6.0    -1.44668651     0.35110912    -0.10668556
C     6.0    -0.52404356     1.05604863    -0.89425856
C     6.0     0.30472404    -1.35574734     0.46237487
O     8.0     0.62517673    -2.39758015     1.02054679
C     6.0     1.31078601    -0.33905941    -0.02307258
H     1.0     2.35231495    -0.55249590     0.17883044
C     6.0    -1.43436122    -1.85214007    -1.58653951
C     6.0    -0.59538871    -1.13794589    -2.44753695
C     6.0    -0.83520412     0.21995240    -2.68426466
C     6.0    -1.15688157    -0.98233646     0.19291179
H     1.0    -1.86650789    -1.54207540     0.79517227
H     1.0     1.65022540     1.48311865    -1.00304925
H     1.0    -2.46592569     0.70681000    -0.03078161
H     1.0    -0.74177390     2.09381151    -1.12748289
H     1.0    -2.50156617    -1.66650724    -1.63577080
H     1.0    -1.19531906    -2.88960600    -1.37593341
H     1.0     0.40187371    -1.51918244    -2.62166595
H     1.0    -1.86129797     0.55030185    -2.79973316
H     1.0    -0.14446047     0.75953072    -3.32372093
 $END
