!File created by the GAMESS Input Deck Generator Plugin for Avogadro
 $BASIS GBASIS=STO NGAUSS=3 $END
 $CONTRL SCFTYP=RHF RUNTYP=OPTIMIZE NZVAR=1 mult=1  ICHARG=0 $END
 $STATPT hssend=.t. OPTTOL=0.0005 NSTEP=50 $END
 $STATPT HESS=calc ihrep=5 $END
 $FORCE nvib=2 $END
 $ZMAT DLC=.t. auto=.t. nonvdw(1)=3,10,8,11 $END
 $ZMAT IFZMAT(1)=1,3,10,1,8,11 fvalue(1)=2.00,2.00 $END

 $DATA 
Title
C1
C     6.0     0.92906     0.73910    -0.61682
C     6.0    -1.41044     0.41498    -0.12029
C     6.0    -0.48880     1.04741    -0.89749
C     6.0     0.29571    -1.33360     0.50105
O     8.0     0.64946    -2.36934     1.06131
C     6.0     1.32207    -0.35554     0.05106
H     1.0     2.35662    -0.57805     0.27334
C     6.0    -1.43518    -1.92371    -1.59231
C     6.0    -0.65995    -1.10135    -2.58324
C     6.0    -0.87406     0.23601    -2.68735
C     6.0    -1.15868    -1.03370     0.17539
H     1.0    -1.86294    -1.50148     0.86598
H     1.0     1.66043     1.47100    -0.94875
H     1.0    -2.42205     0.79782    -0.03314
H     1.0    -0.68695     2.07914    -1.21144
H     1.0    -2.51718    -1.90506    -1.74777
H     1.0    -1.03587    -2.93085    -1.45086
H     1.0     0.25180    -1.53534    -2.98649
H     1.0    -1.90045     0.60155    -2.55166
H     1.0    -0.23358     0.80781    -3.36380
 $END
